SECTION Graph
Nodes 402
Edges 780
E 1 318 3
E 1 330 1
E 1 348 4
E 2 13 2
E 2 323 3
E 2 353 4
E 3 4 1
E 3 339 3
E 3 347 1
E 3 359 4
E 4 343 3
E 4 356 2
E 4 361 4
E 5 9 1
E 5 370 1
E 5 375 1
E 6 10 1
E 6 369 6
E 7 11 1
E 7 73 1
E 7 349 4
E 7 366 5
E 8 12 1
E 8 372 2
E 9 14 1
E 9 368 1
E 10 15 1
E 10 75 6
E 11 16 1
E 11 345 4
E 11 358 1
E 12 17 1
E 12 81 2
E 13 335 3
E 13 347 1
E 13 355 4
E 14 366 1
E 15 375 2
E 15 376 1
E 16 82 1
E 16 340 4
E 16 341 4
E 17 87 2
E 17 365 4
E 18 19 1
E 18 194 38
E 18 224 1
E 18 228 2
E 19 226 1
E 19 229 2
E 19 230 2
E 20 244 5
E 20 246 1
E 20 286 18
E 21 207 38
E 21 238 1
E 21 241 1
E 21 242 1
E 22 241 2
E 22 243 1
E 22 245 1
E 22 265 16
E 23 187 1
E 23 188 1
E 23 192 1
E 23 196 4
E 24 26 1
E 24 210 1
E 24 211 4
E 25 27 1
E 25 188 1
E 25 192 1
E 25 193 1
E 26 28 1
E 26 208 1
E 27 184 1
E 27 185 1
E 27 190 1
E 28 166 43
E 28 206 1
E 29 88 1
E 29 91 2
E 29 118 1
E 29 125 1
E 30 88 1
E 30 121 2
E 30 132 1
E 30 145 11
E 31 32 1
E 31 149 1
E 31 150 1
E 32 154 1
E 32 163 11
E 33 101 1
E 33 102 1
E 34 101 1
E 34 106 1
E 34 116 11
E 35 36 1
E 35 120 1
E 36 124 1
E 36 143 11
E 37 132 11
E 37 145 1
E 37 152 1
E 37 153 1
E 38 151 1
E 38 152 1
E 38 157 1
E 38 180 42
E 39 158 10
E 39 162 1
E 39 164 1
E 39 165 1
E 40 97 1
E 40 98 1
E 40 99 10
E 40 107 14
E 41 43 5
E 41 98 10
E 41 99 1
E 42 43 10
E 42 44 5
E 42 95 1
E 42 98 5
E 43 45 5
E 44 45 10
E 44 46 1
E 44 94 1
E 45 47 1
E 46 47 10
E 46 92 1
E 46 93 1
E 47 49 1
E 48 92 1
E 48 93 1
E 49 93 10
E 50 167 1
E 50 168 6
E 50 212 45
E 51 89 1
E 51 168 9
E 51 173 1
E 51 175 1
E 52 135 42
E 52 167 6
E 52 168 1
E 52 171 5
E 53 170 4
E 53 177 5
E 53 215 38
E 54 72 216
E 54 100 1
E 54 111 6
E 55 91 1
E 55 105 9
E 55 114 1
E 55 118 2
E 56 88 2
E 56 91 1
E 56 111 9
E 56 121 1
E 57 105 1
E 57 114 9
E 58 100 6
E 58 111 1
E 58 121 9
E 58 128 11
E 59 284 1
E 59 290 1
E 59 328 10
E 60 334 1
E 60 335 1
E 60 339 1
E 60 347 3
E 61 68 5
E 61 266 4
E 61 287 10
E 62 259 10
E 62 287 1
E 62 306 4
E 62 315 6
E 63 64 2
E 63 308 2
E 64 316 2
E 65 354 1
E 65 374 9
E 66 71 8
E 66 214 17
E 66 239 6
E 66 248 17
E 67 222 16
E 67 239 5
E 67 247 7
E 67 250 9
E 68 69 5
E 68 271 10
E 69 70 1
E 69 256 10
E 70 71 1
E 70 253 10
E 71 250 10
E 73 358 1
E 73 362 1
E 73 368 5
E 74 75 1
E 74 78 1
E 74 364 2
E 74 376 5
E 75 79 1
E 75 369 1
E 76 77 1
E 76 83 1
E 76 358 1
E 76 362 1
E 77 78 2
E 77 84 1
E 77 364 1
E 78 79 1
E 78 363 1
E 79 80 1
E 79 85 1
E 80 81 1
E 80 86 1
E 80 369 1
E 81 87 1
E 81 372 1
E 82 83 1
E 82 344 4
E 82 358 1
E 83 84 1
E 83 348 4
E 84 353 4
E 84 363 2
E 85 86 1
E 85 357 4
E 85 363 1
E 86 87 1
E 86 359 4
E 87 361 4
E 88 129 1
E 89 90 1
E 89 169 9
E 89 178 1
E 90 170 9
E 90 182 1
E 90 191 4
E 91 108 9
E 92 94 1
E 94 95 5
E 95 96 5
E 96 97 1
E 96 98 1
E 97 104 14
E 99 117 14
E 100 113 11
E 101 103 1
E 102 103 1
E 102 104 1
E 103 106 1
E 103 110 2
E 104 107 1
E 104 109 2
E 105 108 1
E 106 109 1
E 106 119 11
E 107 110 1
E 107 117 10
E 108 111 1
E 109 112 1
E 109 123 11
E 110 112 1
E 110 120 10
E 112 124 10
E 112 127 11
E 113 115 2
E 113 128 6
E 114 116 2
E 115 135 6
E 115 167 42
E 116 118 1
E 116 119 1
E 117 120 1
E 118 122 1
E 119 122 1
E 119 123 1
E 120 124 1
E 121 139 11
E 122 125 1
E 122 126 1
E 123 126 1
E 123 127 1
E 124 140 11
E 125 129 1
E 125 134 2
E 126 130 1
E 126 133 2
E 127 130 1
E 127 140 10
E 128 131 1
E 128 139 9
E 129 132 1
E 129 133 1
E 130 134 1
E 130 142 10
E 131 135 1
E 131 141 9
E 132 136 1
E 133 136 1
E 133 137 1
E 134 137 1
E 134 146 10
E 135 144 9
E 136 138 1
E 136 153 11
E 137 138 1
E 137 149 10
E 138 154 10
E 138 156 11
E 139 141 1
E 139 145 2
E 140 142 1
E 140 143 1
E 141 144 1
E 141 148 2
E 142 146 1
E 142 147 1
E 143 147 1
E 144 151 2
E 144 173 42
E 145 148 1
E 146 149 1
E 146 150 1
E 147 150 1
E 148 151 1
E 148 152 1
E 149 154 1
E 151 176 42
E 152 155 1
E 153 155 1
E 153 156 1
E 154 162 11
E 155 157 1
E 155 158 1
E 156 158 1
E 156 162 10
E 157 159 1
E 157 185 42
E 158 159 1
E 159 160 5
E 159 189 42
E 160 161 1
E 160 198 43
E 161 164 4
E 161 201 43
E 162 163 1
E 163 165 1
E 164 166 1
E 164 205 42
E 165 166 1
E 168 169 1
E 169 170 1
E 171 172 1
E 171 177 7
E 172 173 3
E 172 181 7
E 173 174 1
E 174 175 1
E 174 176 1
E 175 178 1
E 175 179 1
E 176 179 1
E 176 180 1
E 177 181 1
E 177 218 38
E 178 182 1
E 178 183 1
E 179 183 1
E 179 184 1
E 180 184 1
E 180 185 1
E 181 186 1
E 181 220 38
E 182 187 1
E 182 194 4
E 183 187 1
E 183 188 1
E 184 188 1
E 185 189 1
E 186 191 2
E 186 225 41
E 189 190 1
E 189 205 10
E 190 193 1
E 190 198 5
E 191 194 1
E 191 224 38
E 192 195 1
E 192 197 4
E 193 195 1
E 193 200 5
E 194 196 2
E 195 199 4
E 195 202 5
E 196 197 1
E 196 228 38
E 197 199 1
E 197 231 38
E 198 200 1
E 198 201 1
E 199 207 5
E 199 233 38
E 200 202 1
E 200 203 1
E 201 203 1
E 201 206 4
E 202 204 1
E 202 207 4
E 203 204 1
E 203 208 4
E 204 209 4
E 204 210 4
E 205 206 1
E 206 208 1
E 207 209 1
E 208 210 1
E 209 211 5
E 209 242 38
E 211 246 38
E 212 213 1
E 212 215 5
E 213 214 2
E 213 216 5
E 214 217 5
E 215 216 1
E 215 218 5
E 216 217 2
E 216 219 5
E 217 222 5
E 217 239 16
E 218 219 1
E 218 220 1
E 219 221 1
E 219 222 2
E 220 221 1
E 220 224 3
E 221 223 2
E 221 226 3
E 222 223 1
E 223 225 1
E 223 254 25
E 224 226 1
E 225 227 2
E 225 258 25
E 226 227 2
E 227 229 1
E 228 230 1
E 228 231 1
E 229 234 2
E 229 263 25
E 230 232 1
E 230 234 2
E 231 232 1
E 231 233 1
E 232 235 1
E 232 236 2
E 233 235 1
E 233 238 4
E 234 236 1
E 234 247 16
E 235 237 2
E 235 240 4
E 236 237 1
E 236 249 16
E 237 243 4
E 237 252 16
E 238 240 1
E 240 241 1
E 240 243 2
E 241 244 1
E 242 244 1
E 242 246 5
E 243 262 16
E 244 245 2
E 245 269 16
E 247 248 1
E 247 249 1
E 248 251 1
E 248 273 8
E 249 251 1
E 249 252 1
E 250 253 1
E 250 254 1
E 251 255 1
E 251 277 8
E 252 255 1
E 252 262 4
E 253 256 1
E 253 257 1
E 254 257 1
E 254 258 1
E 255 264 4
E 255 281 8
E 256 259 1
E 256 271 5
E 257 259 1
E 257 260 1
E 258 260 1
E 258 263 3
E 259 261 1
E 260 261 1
E 260 267 3
E 261 272 3
E 261 311 14
E 262 264 1
E 262 265 1
E 263 267 1
E 263 273 2
E 264 268 1
E 264 291 8
E 265 268 1
E 265 269 1
E 266 270 1
E 266 301 10
E 267 272 1
E 267 276 2
E 268 274 1
E 268 295 8
E 269 274 1
E 269 286 5
E 270 275 1
E 270 305 10
E 271 287 5
E 271 288 5
E 272 279 2
E 272 288 5
E 273 276 1
E 273 277 1
E 274 289 5
E 274 299 8
E 275 278 1
E 275 309 10
E 276 279 1
E 276 280 1
E 277 280 1
E 277 281 1
E 278 284 2
E 278 312 10
E 279 282 1
E 279 293 5
E 280 282 1
E 280 283 1
E 281 283 1
E 281 291 4
E 282 285 1
E 282 296 5
E 283 285 1
E 283 294 4
E 284 322 10
E 285 297 4
E 285 302 5
E 286 289 1
E 287 301 4
E 288 293 2
E 288 324 9
E 289 321 8
E 290 292 1
E 290 333 10
E 291 294 1
E 291 295 1
E 292 300 2
E 292 336 10
E 293 296 1
E 293 315 5
E 294 297 1
E 294 298 1
E 295 298 1
E 295 299 1
E 296 302 1
E 296 319 5
E 297 303 1
E 297 320 5
E 298 303 1
E 298 304 1
E 299 304 1
E 299 321 5
E 300 308 2
E 300 342 10
E 301 305 1
E 301 306 1
E 302 320 4
E 302 325 5
E 303 307 1
E 303 326 5
E 304 307 1
E 304 327 5
E 305 309 1
E 305 310 1
E 306 310 1
E 306 311 1
E 307 331 5
E 307 332 5
E 308 316 2
E 308 351 10
E 309 312 1
E 309 313 1
E 310 313 1
E 310 314 1
E 311 314 1
E 311 324 3
E 312 317 1
E 312 322 2
E 313 317 1
E 313 318 1
E 314 318 1
E 314 330 3
E 315 319 1
E 316 354 10
E 317 323 1
E 317 329 2
E 318 323 1
E 319 325 1
E 320 326 1
E 320 341 5
E 321 327 1
E 322 328 1
E 322 329 1
E 323 335 2
E 324 330 1
E 324 340 4
E 325 340 4
E 325 341 4
E 326 331 1
E 326 345 5
E 327 332 1
E 328 333 1
E 328 334 1
E 329 334 1
E 329 335 1
E 330 344 4
E 331 349 5
E 331 350 5
E 332 350 5
E 333 336 1
E 333 337 1
E 334 337 1
E 336 338 1
E 336 342 2
E 337 338 1
E 337 339 1
E 338 343 1
E 338 346 2
E 339 343 1
E 340 344 1
E 341 345 1
E 342 346 1
E 342 351 2
E 343 352 2
E 344 348 1
E 345 349 1
E 346 352 1
E 347 357 4
E 348 353 1
E 349 360 5
E 350 360 5
E 351 354 2
E 351 367 9
E 352 356 3
E 353 355 2
E 354 371 9
E 355 357 1
E 355 363 4
E 356 365 4
E 357 359 1
E 359 361 1
E 360 366 4
E 361 365 2
E 362 364 1
E 362 370 5
E 364 373 5
E 365 367 2
E 366 368 1
E 367 371 2
E 368 370 1
E 369 372 1
E 370 373 1
E 371 374 1
E 373 375 1
E 373 376 2
E 1 377 100000
E 2 377 100000
E 3 377 100000
E 4 377 100000
E 5 377 100000
E 6 377 100000
E 7 377 100000
E 8 377 100000
E 9 378 100000
E 10 378 100000
E 11 378 100000
E 12 378 100000
E 13 379 100000
E 14 379 100000
E 15 379 100000
E 16 379 100000
E 17 379 100000
E 18 380 100000
E 19 380 100000
E 20 380 100000
E 21 380 100000
E 22 380 100000
E 23 381 100000
E 24 381 100000
E 25 382 100000
E 26 382 100000
E 27 383 100000
E 28 383 100000
E 29 384 100000
E 30 384 100000
E 31 384 100000
E 32 384 100000
E 33 385 100000
E 34 385 100000
E 35 385 100000
E 36 385 100000
E 37 386 100000
E 38 386 100000
E 39 386 100000
E 40 387 100000
E 41 387 100000
E 42 388 100000
E 43 388 100000
E 44 389 100000
E 45 389 100000
E 46 390 100000
E 47 390 100000
E 48 391 100000
E 49 391 100000
E 50 392 100000
E 51 392 100000
E 52 392 100000
E 53 392 100000
E 54 393 100000
E 55 393 100000
E 56 393 100000
E 57 393 100000
E 58 393 100000
E 59 394 100000
E 60 394 100000
E 61 395 100000
E 62 395 100000
E 63 396 100000
E 64 396 100000
E 65 396 100000
E 66 397 100000
E 67 397 100000
E 68 398 100000
E 69 399 100000
E 70 400 100000
E 71 401 100000
E 72 402 100000
E 73 377 100000
E 74 377 100000
E 75 377 100000
E 76 378 100000
E 77 378 100000
E 78 378 100000
E 79 378 100000
E 80 378 100000
E 81 378 100000
E 82 379 100000
E 83 379 100000
E 84 379 100000
E 85 379 100000
E 86 379 100000
E 87 379 100000
E 88 384 100000
E 89 392 100000
E 90 392 100000
E 91 393 100000
END

SECTION Terminals
Terminals 26
T 377
T 378
T 379
T 380
T 381
T 382
T 383
T 384
T 385
T 386
T 387
T 388
T 389
T 390
T 391
T 392
T 393
T 394
T 395
T 396
T 397
T 398
T 399
T 400
T 401
T 402
END

EOF
